% Auto-generated by scripts/generate_dzn.py
% problem_type   = regex
% instance       = regex_71
% source_json    = instances_json/1_medium_blowup/regex_71.json
% blowup         = 6.571428571428571
% representation = NFA

mode = 1;

var_count = 21;
n_constraints = 2;
Q = 13;
S = 2;
q0 = [1, 1];
F = [{13}, {8}];
weights = [3, 8, 10, 7, 10, 9, 2, 3, 5, 6, 1, 9, 3, 8, 4, 9, 5, 10, 8, 9, 7];
d_dfa = array3d(1..2, 1..13, 1..2, [
  % k = 1
    0, 0,
    0, 0,
    0, 0,
    0, 0,
    0, 0,
    0, 0,
    0, 0,
    0, 0,
    0, 0,
    0, 0,
    0, 0,
    0, 0,
    0, 0,

  % k = 2
    0, 0,
    0, 0,
    0, 0,
    0, 0,
    0, 0,
    0, 0,
    0, 0,
    0, 0,
    0, 0,
    0, 0,
    0, 0,
    0, 0,
    0, 0
]);
d_nfa = array3d(1..2, 1..13, 1..2, [
  % k = 1
    {1, 2}, {1},
    {}, {3},
    {}, {4},
    {5}, {5},
    {6}, {6},
    {7}, {7},
    {8}, {8},
    {9}, {9},
    {10}, {10},
    {11}, {11},
    {12}, {12},
    {13}, {13},
    {}, {},

  % k = 2
    {2}, {1},
    {3}, {2},
    {4}, {3},
    {5}, {4},
    {6}, {5},
    {7}, {6},
    {8}, {7},
    {}, {8},
    {}, {},
    {}, {},
    {}, {},
    {}, {},
    {}, {}
]);
